NAME : left_l_constant_constant_5_5_1.tsp
COMMENT : left_l_constant_constant_5_5_1.tsp
TYPE : TSP
DIMENSION : 9
EDGE_WEIGHT_TYPE : EUC_2D
NODE_COORD_SECTION
1 10.000000 10.000000
2 10.000000 11.000000
3 10.000000 12.000000
4 10.000000 13.000000
5 10.000000 14.000000
6 11.000000 10.000000
7 12.000000 10.000000
8 13.000000 10.000000
9 14.000000 10.000000
EOF